webassembly/ejemplos_dzn/folder7_json_99.dzn
TERM = { '.', 's(2)', 's(4)', 'in_1', 'local_1', 'in_2', 'in_4', 'in_3', 's(1)', 's(0)', 's(3)', 'in_0'};
null = '.';
s = 7;
n = 10;
ndeps = 6;
max_registers_sz = 4;
NR = 1;
registers = [|'local_1', 'in_0'|];
dependencies = [|'i32.store_1', 'i32.store_2', |'i32.store_2', 'i32.load8_s_3', |'i32.store_2', 'i32.load8_s_4', |'i32.load8_s_3', 'call[function_index(0)]_5', |'i32.load8_s_4', 'call[function_index(0)]_5', |'call[function_index(0)]_5', 'i32.load16_s_6'|];
GET_ENUM = { GET1, GET2, GET3, GET4, GET5};
SET_ENUM = { SET1, SET2, SET3, SET4, SET5};
TEE_ENUM = { TEE1, TEE2, TEE3, TEE4, TEE5};
N = 6;
OP = { 'call[function_index(0)]_5', 'i32.store_1', 'i32.store_2', 'i32.load8_s_3', 'i32.load8_s_4', 'i32.load16_s_6' };
in_ops = [1, 2, 2, 1, 1, 1 ];
out_ops = [2, 0, 0, 1, 1, 1 ];
in1 = ['s(1)', 'in_0', 'in_2', 'in_4', 's(0)', 's(3)' ];
in2 = ['.', 'in_1', 'in_3', '.', '.', '.' ];
in3 = ['.', '.', '.', '.', '.', '.' ];
out1 = ['s(3)', '.', '.', 's(0)', 's(1)', 's(4)' ];
out2 = ['s(2)', '.', '.', '.', '.', '.' ];
out3 = ['.', '.', '.', '.', '.', '.' ];
comm = [false, false, false, false, false, false ];
gas = [1, 1, 1, 1, 1, 1 ];
sz = [1, 1, 1, 1, 1, 1 ];
stor = [true, true, true, false, false, false ];
lb = [ 1, 1, 1, 1, 1, 1 ];
ub = [ 7, 7, 7, 7, 7, 7 ];
startstack = [ 'in_0', 'in_1', 'in_2', 'in_3', 'in_4', null, null, null, null, null ];
endstack = [ 's(4)', 's(2)', null, null, null, null, null, null, null, null ];
